<instance format="XCSP3" type="COP">
  <variables>
    <array id="x" note="x[i] denotes the position (in the line) of the ith node" size="[62]"> 0..61 </array>
    <array id="d" note="d[i][j] denotes the distance in the line between the ith and jth nodes (if they are adjacent in the graph)" size="[62][62]"> 1..61 </array>
  </variables>
  <constraints>
    <allDifferent note="putting nodes at different positions"> x[] </allDifferent>
    <group note="computing distances">
      <intension> eq(%0,dist(%1,%2)) </intension>
      <args> d[0][2] x[0] x[2] </args>
      <args> d[1][2] x[1] x[2] </args>
      <args> d[1][4] x[1] x[4] </args>
      <args> d[2][3] x[2] x[3] </args>
      <args> d[3][4] x[3] x[4] </args>
      <args> d[3][5] x[3] x[5] </args>
      <args> d[4][8] x[4] x[8] </args>
      <args> d[4][9] x[4] x[9] </args>
      <args> d[5][6] x[5] x[6] </args>
      <args> d[5][7] x[5] x[7] </args>
      <args> d[6][7] x[6] x[7] </args>
      <args> d[6][19] x[6] x[19] </args>
      <args> d[7][8] x[7] x[8] </args>
      <args> d[8][14] x[8] x[14] </args>
      <args> d[8][18] x[8] x[18] </args>
      <args> d[9][10] x[9] x[10] </args>
      <args> d[9][12] x[9] x[12] </args>
      <args> d[10][11] x[10] x[11] </args>
      <args> d[10][58] x[10] x[58] </args>
      <args> d[11][12] x[11] x[12] </args>
      <args> d[11][13] x[11] x[13] </args>
      <args> d[12][14] x[12] x[14] </args>
      <args> d[13][14] x[13] x[14] </args>
      <args> d[13][15] x[13] x[15] </args>
      <args> d[15][16] x[15] x[16] </args>
      <args> d[15][61] x[15] x[61] </args>
      <args> d[16][17] x[16] x[17] </args>
      <args> d[16][21] x[16] x[21] </args>
      <args> d[16][22] x[16] x[22] </args>
      <args> d[16][31] x[16] x[31] </args>
      <args> d[16][52] x[16] x[52] </args>
      <args> d[17][18] x[17] x[18] </args>
      <args> d[17][20] x[17] x[20] </args>
      <args> d[18][19] x[18] x[19] </args>
      <args> d[19][57] x[19] x[57] </args>
      <args> d[20][21] x[20] x[21] </args>
      <args> d[21][31] x[21] x[31] </args>
      <args> d[22][23] x[22] x[23] </args>
      <args> d[23][24] x[23] x[24] </args>
      <args> d[23][30] x[23] x[30] </args>
      <args> d[24][25] x[24] x[25] </args>
      <args> d[25][26] x[25] x[26] </args>
      <args> d[25][29] x[25] x[29] </args>
      <args> d[26][28] x[26] x[28] </args>
      <args> d[26][51] x[26] x[51] </args>
      <args> d[27][51] x[27] x[51] </args>
      <args> d[28][29] x[28] x[29] </args>
      <args> d[28][34] x[28] x[34] </args>
      <args> d[28][47] x[28] x[47] </args>
      <args> d[29][30] x[29] x[30] </args>
      <args> d[30][31] x[30] x[31] </args>
      <args> d[31][32] x[31] x[32] </args>
      <args> d[32][33] x[32] x[33] </args>
      <args> d[33][36] x[33] x[36] </args>
      <args> d[34][35] x[34] x[35] </args>
      <args> d[34][60] x[34] x[60] </args>
      <args> d[35][41] x[35] x[41] </args>
      <args> d[35][42] x[35] x[42] </args>
      <args> d[36][41] x[36] x[41] </args>
      <args> d[36][56] x[36] x[56] </args>
      <args> d[37][38] x[37] x[38] </args>
      <args> d[37][56] x[37] x[56] </args>
      <args> d[38][39] x[38] x[39] </args>
      <args> d[39][40] x[39] x[40] </args>
      <args> d[40][53] x[40] x[53] </args>
      <args> d[41][46] x[41] x[46] </args>
      <args> d[41][60] x[41] x[60] </args>
      <args> d[43][44] x[43] x[44] </args>
      <args> d[43][46] x[43] x[46] </args>
      <args> d[44][45] x[44] x[45] </args>
      <args> d[47][48] x[47] x[48] </args>
      <args> d[47][49] x[47] x[49] </args>
      <args> d[47][50] x[47] x[50] </args>
      <args> d[51][55] x[51] x[55] </args>
      <args> d[53][54] x[53] x[54] </args>
      <args> d[53][57] x[53] x[57] </args>
      <args> d[56][57] x[56] x[57] </args>
      <args> d[58][59] x[58] x[59] </args>
    </group>
    <group class="redundant-constraints" note="triangle constraints: distance(i,j) &lt;= distance(i,k) + distance(k,j)">
      <intension> le(%0,add(%1,%2)) </intension>
      <args> d[5][6..7] d[6][7] </args>
      <args> d[5][7] d[5][6] d[6][7] </args>
      <args> d[6][7] d[5][6..7] </args>
      <args> d[16][21] d[16][31] d[21][31] </args>
      <args> d[16][31] d[16][21] d[21][31] </args>
      <args> d[21][31] d[16][21] d[16][31] </args>
    </group>
  </constraints>
  <objectives>
    <minimize note="minimizing the sum of distances between adjacent nodes" type="sum"> d[0..1][2] d[1][4] d[2][3] d[3][4..5] d[4][8..9] d[5][6..7] d[6][7] d[6][19] d[7][8] d[8][14] d[8][18] d[9][10] d[9][12] d[10][11] d[10][58] d[11][12..13] d[12..13][14] d[13][15] d[15][16] d[15][61] d[16][17] d[16][21..22] d[16][31] d[16][52] d[17][18] d[17][20] d[18][19] d[19][57] d[20][21] d[21][31] d[22][23] d[23][24] d[23][30] d[24][25] d[25][26] d[25][29] d[26][28] d[26..27][51] d[28][29] d[28][34] d[28][47] d[29][30] d[30][31] d[31][32] d[32][33] d[33][36] d[34][35] d[34][60] d[35][41..42] d[36][41] d[36][56] d[37][38] d[37][56] d[38][39] d[39][40] d[40][53] d[41][46] d[41][60] d[43][44] d[43][46] d[44][45] d[47][48..50] d[51][55] d[53][54] d[53][57] d[56][57] d[58][59] </minimize>
  </objectives>
</instance>
